c *********************************
c * Circuit generated by BenCGen
c *
c * Parity_144
c *
c * Ports with 1 gate(s): 1
c * Ports with 2 gate(s): 144
c * Total gates: 145
c *********************************
p cnf 289 577
1 147 0
-1 -147 0
1 -146 0
147 -146 0
-1 -147 146 0
1 2 -148 0
-1 2 148 0
1 -2 148 0
-1 -2 -148 0
3 4 -149 0
-3 4 149 0
3 -4 149 0
-3 -4 -149 0
5 6 -150 0
-5 6 150 0
5 -6 150 0
-5 -6 -150 0
7 8 -151 0
-7 8 151 0
7 -8 151 0
-7 -8 -151 0
9 10 -152 0
-9 10 152 0
9 -10 152 0
-9 -10 -152 0
11 12 -153 0
-11 12 153 0
11 -12 153 0
-11 -12 -153 0
13 14 -154 0
-13 14 154 0
13 -14 154 0
-13 -14 -154 0
15 16 -155 0
-15 16 155 0
15 -16 155 0
-15 -16 -155 0
17 18 -156 0
-17 18 156 0
17 -18 156 0
-17 -18 -156 0
19 20 -157 0
-19 20 157 0
19 -20 157 0
-19 -20 -157 0
21 22 -158 0
-21 22 158 0
21 -22 158 0
-21 -22 -158 0
23 24 -159 0
-23 24 159 0
23 -24 159 0
-23 -24 -159 0
25 26 -160 0
-25 26 160 0
25 -26 160 0
-25 -26 -160 0
27 28 -161 0
-27 28 161 0
27 -28 161 0
-27 -28 -161 0
29 30 -162 0
-29 30 162 0
29 -30 162 0
-29 -30 -162 0
31 32 -163 0
-31 32 163 0
31 -32 163 0
-31 -32 -163 0
33 34 -164 0
-33 34 164 0
33 -34 164 0
-33 -34 -164 0
35 36 -165 0
-35 36 165 0
35 -36 165 0
-35 -36 -165 0
37 38 -166 0
-37 38 166 0
37 -38 166 0
-37 -38 -166 0
39 40 -167 0
-39 40 167 0
39 -40 167 0
-39 -40 -167 0
41 42 -168 0
-41 42 168 0
41 -42 168 0
-41 -42 -168 0
43 44 -169 0
-43 44 169 0
43 -44 169 0
-43 -44 -169 0
45 46 -170 0
-45 46 170 0
45 -46 170 0
-45 -46 -170 0
47 48 -171 0
-47 48 171 0
47 -48 171 0
-47 -48 -171 0
49 50 -172 0
-49 50 172 0
49 -50 172 0
-49 -50 -172 0
51 52 -173 0
-51 52 173 0
51 -52 173 0
-51 -52 -173 0
53 54 -174 0
-53 54 174 0
53 -54 174 0
-53 -54 -174 0
55 56 -175 0
-55 56 175 0
55 -56 175 0
-55 -56 -175 0
57 58 -176 0
-57 58 176 0
57 -58 176 0
-57 -58 -176 0
59 60 -177 0
-59 60 177 0
59 -60 177 0
-59 -60 -177 0
61 62 -178 0
-61 62 178 0
61 -62 178 0
-61 -62 -178 0
63 64 -179 0
-63 64 179 0
63 -64 179 0
-63 -64 -179 0
65 66 -180 0
-65 66 180 0
65 -66 180 0
-65 -66 -180 0
67 68 -181 0
-67 68 181 0
67 -68 181 0
-67 -68 -181 0
69 70 -182 0
-69 70 182 0
69 -70 182 0
-69 -70 -182 0
71 72 -183 0
-71 72 183 0
71 -72 183 0
-71 -72 -183 0
73 74 -184 0
-73 74 184 0
73 -74 184 0
-73 -74 -184 0
75 76 -185 0
-75 76 185 0
75 -76 185 0
-75 -76 -185 0
77 78 -186 0
-77 78 186 0
77 -78 186 0
-77 -78 -186 0
79 80 -187 0
-79 80 187 0
79 -80 187 0
-79 -80 -187 0
81 82 -188 0
-81 82 188 0
81 -82 188 0
-81 -82 -188 0
83 84 -189 0
-83 84 189 0
83 -84 189 0
-83 -84 -189 0
85 86 -190 0
-85 86 190 0
85 -86 190 0
-85 -86 -190 0
87 88 -191 0
-87 88 191 0
87 -88 191 0
-87 -88 -191 0
89 90 -192 0
-89 90 192 0
89 -90 192 0
-89 -90 -192 0
91 92 -193 0
-91 92 193 0
91 -92 193 0
-91 -92 -193 0
93 94 -194 0
-93 94 194 0
93 -94 194 0
-93 -94 -194 0
95 96 -195 0
-95 96 195 0
95 -96 195 0
-95 -96 -195 0
97 98 -196 0
-97 98 196 0
97 -98 196 0
-97 -98 -196 0
99 100 -197 0
-99 100 197 0
99 -100 197 0
-99 -100 -197 0
101 102 -198 0
-101 102 198 0
101 -102 198 0
-101 -102 -198 0
103 104 -199 0
-103 104 199 0
103 -104 199 0
-103 -104 -199 0
105 106 -200 0
-105 106 200 0
105 -106 200 0
-105 -106 -200 0
107 108 -201 0
-107 108 201 0
107 -108 201 0
-107 -108 -201 0
109 110 -202 0
-109 110 202 0
109 -110 202 0
-109 -110 -202 0
111 112 -203 0
-111 112 203 0
111 -112 203 0
-111 -112 -203 0
113 114 -204 0
-113 114 204 0
113 -114 204 0
-113 -114 -204 0
115 116 -205 0
-115 116 205 0
115 -116 205 0
-115 -116 -205 0
117 118 -206 0
-117 118 206 0
117 -118 206 0
-117 -118 -206 0
119 120 -207 0
-119 120 207 0
119 -120 207 0
-119 -120 -207 0
121 122 -208 0
-121 122 208 0
121 -122 208 0
-121 -122 -208 0
123 124 -209 0
-123 124 209 0
123 -124 209 0
-123 -124 -209 0
125 126 -210 0
-125 126 210 0
125 -126 210 0
-125 -126 -210 0
127 128 -211 0
-127 128 211 0
127 -128 211 0
-127 -128 -211 0
129 130 -212 0
-129 130 212 0
129 -130 212 0
-129 -130 -212 0
131 132 -213 0
-131 132 213 0
131 -132 213 0
-131 -132 -213 0
133 134 -214 0
-133 134 214 0
133 -134 214 0
-133 -134 -214 0
135 136 -215 0
-135 136 215 0
135 -136 215 0
-135 -136 -215 0
137 138 -216 0
-137 138 216 0
137 -138 216 0
-137 -138 -216 0
139 140 -217 0
-139 140 217 0
139 -140 217 0
-139 -140 -217 0
141 142 -218 0
-141 142 218 0
141 -142 218 0
-141 -142 -218 0
143 144 -219 0
-143 144 219 0
143 -144 219 0
-143 -144 -219 0
148 149 -220 0
-148 149 220 0
148 -149 220 0
-148 -149 -220 0
150 151 -221 0
-150 151 221 0
150 -151 221 0
-150 -151 -221 0
152 153 -222 0
-152 153 222 0
152 -153 222 0
-152 -153 -222 0
154 155 -223 0
-154 155 223 0
154 -155 223 0
-154 -155 -223 0
156 157 -224 0
-156 157 224 0
156 -157 224 0
-156 -157 -224 0
158 159 -225 0
-158 159 225 0
158 -159 225 0
-158 -159 -225 0
160 161 -226 0
-160 161 226 0
160 -161 226 0
-160 -161 -226 0
162 163 -227 0
-162 163 227 0
162 -163 227 0
-162 -163 -227 0
164 165 -228 0
-164 165 228 0
164 -165 228 0
-164 -165 -228 0
166 167 -229 0
-166 167 229 0
166 -167 229 0
-166 -167 -229 0
168 169 -230 0
-168 169 230 0
168 -169 230 0
-168 -169 -230 0
170 171 -231 0
-170 171 231 0
170 -171 231 0
-170 -171 -231 0
172 173 -232 0
-172 173 232 0
172 -173 232 0
-172 -173 -232 0
174 175 -233 0
-174 175 233 0
174 -175 233 0
-174 -175 -233 0
176 177 -234 0
-176 177 234 0
176 -177 234 0
-176 -177 -234 0
178 179 -235 0
-178 179 235 0
178 -179 235 0
-178 -179 -235 0
180 181 -236 0
-180 181 236 0
180 -181 236 0
-180 -181 -236 0
182 183 -237 0
-182 183 237 0
182 -183 237 0
-182 -183 -237 0
184 185 -238 0
-184 185 238 0
184 -185 238 0
-184 -185 -238 0
186 187 -239 0
-186 187 239 0
186 -187 239 0
-186 -187 -239 0
188 189 -240 0
-188 189 240 0
188 -189 240 0
-188 -189 -240 0
190 191 -241 0
-190 191 241 0
190 -191 241 0
-190 -191 -241 0
192 193 -242 0
-192 193 242 0
192 -193 242 0
-192 -193 -242 0
194 195 -243 0
-194 195 243 0
194 -195 243 0
-194 -195 -243 0
196 197 -244 0
-196 197 244 0
196 -197 244 0
-196 -197 -244 0
198 199 -245 0
-198 199 245 0
198 -199 245 0
-198 -199 -245 0
200 201 -246 0
-200 201 246 0
200 -201 246 0
-200 -201 -246 0
202 203 -247 0
-202 203 247 0
202 -203 247 0
-202 -203 -247 0
204 205 -248 0
-204 205 248 0
204 -205 248 0
-204 -205 -248 0
206 207 -249 0
-206 207 249 0
206 -207 249 0
-206 -207 -249 0
208 209 -250 0
-208 209 250 0
208 -209 250 0
-208 -209 -250 0
210 211 -251 0
-210 211 251 0
210 -211 251 0
-210 -211 -251 0
212 213 -252 0
-212 213 252 0
212 -213 252 0
-212 -213 -252 0
214 215 -253 0
-214 215 253 0
214 -215 253 0
-214 -215 -253 0
216 217 -254 0
-216 217 254 0
216 -217 254 0
-216 -217 -254 0
218 219 -255 0
-218 219 255 0
218 -219 255 0
-218 -219 -255 0
220 221 -256 0
-220 221 256 0
220 -221 256 0
-220 -221 -256 0
222 223 -257 0
-222 223 257 0
222 -223 257 0
-222 -223 -257 0
224 225 -258 0
-224 225 258 0
224 -225 258 0
-224 -225 -258 0
226 227 -259 0
-226 227 259 0
226 -227 259 0
-226 -227 -259 0
228 229 -260 0
-228 229 260 0
228 -229 260 0
-228 -229 -260 0
230 231 -261 0
-230 231 261 0
230 -231 261 0
-230 -231 -261 0
232 233 -262 0
-232 233 262 0
232 -233 262 0
-232 -233 -262 0
234 235 -263 0
-234 235 263 0
234 -235 263 0
-234 -235 -263 0
236 237 -264 0
-236 237 264 0
236 -237 264 0
-236 -237 -264 0
238 239 -265 0
-238 239 265 0
238 -239 265 0
-238 -239 -265 0
240 241 -266 0
-240 241 266 0
240 -241 266 0
-240 -241 -266 0
242 243 -267 0
-242 243 267 0
242 -243 267 0
-242 -243 -267 0
244 245 -268 0
-244 245 268 0
244 -245 268 0
-244 -245 -268 0
246 247 -269 0
-246 247 269 0
246 -247 269 0
-246 -247 -269 0
248 249 -270 0
-248 249 270 0
248 -249 270 0
-248 -249 -270 0
250 251 -271 0
-250 251 271 0
250 -251 271 0
-250 -251 -271 0
252 253 -272 0
-252 253 272 0
252 -253 272 0
-252 -253 -272 0
254 255 -273 0
-254 255 273 0
254 -255 273 0
-254 -255 -273 0
256 257 -274 0
-256 257 274 0
256 -257 274 0
-256 -257 -274 0
258 259 -275 0
-258 259 275 0
258 -259 275 0
-258 -259 -275 0
260 261 -276 0
-260 261 276 0
260 -261 276 0
-260 -261 -276 0
262 263 -277 0
-262 263 277 0
262 -263 277 0
-262 -263 -277 0
264 265 -278 0
-264 265 278 0
264 -265 278 0
-264 -265 -278 0
266 267 -279 0
-266 267 279 0
266 -267 279 0
-266 -267 -279 0
268 269 -280 0
-268 269 280 0
268 -269 280 0
-268 -269 -280 0
270 271 -281 0
-270 271 281 0
270 -271 281 0
-270 -271 -281 0
272 273 -282 0
-272 273 282 0
272 -273 282 0
-272 -273 -282 0
274 275 -283 0
-274 275 283 0
274 -275 283 0
-274 -275 -283 0
276 277 -284 0
-276 277 284 0
276 -277 284 0
-276 -277 -284 0
278 279 -285 0
-278 279 285 0
278 -279 285 0
-278 -279 -285 0
280 281 -286 0
-280 281 286 0
280 -281 286 0
-280 -281 -286 0
283 284 -287 0
-283 284 287 0
283 -284 287 0
-283 -284 -287 0
285 286 -288 0
-285 286 288 0
285 -286 288 0
-285 -286 -288 0
287 288 -289 0
-287 288 289 0
287 -288 289 0
-287 -288 -289 0
289 282 -145 0
-289 282 145 0
289 -282 145 0
-289 -282 -145 0
